results_rootrelaxation/bin012_050_000.srr.sol
solution status: optimal solution found
objective value:                                    0
_var476_                           0.0156752009427352 	(obj:0)
_var700_                            0.359966352050932 	(obj:0)
_var701_                           0.0296494758257272 	(obj:0)
_var707_                            0.143118660900565 	(obj:0)
_var727_                              0.1363038394978 	(obj:0)
_var730_                           0.0367644606507989 	(obj:0)
_var735_                            0.188202465786928 	(obj:0)
_var738_                            0.357253764086373 	(obj:0)
_var742_                           0.0569939930258321 	(obj:0)
_var747_                            0.590106465371888 	(obj:0)
_var749_                           0.0830081562924998 	(obj:0)
_var751_                           0.0170277892037512 	(obj:0)
_var752_                            0.410549447291674 	(obj:0)
_var758_                            0.399246997439347 	(obj:0)
_var760_                            0.304606582102108 	(obj:0)
_var764_                            0.157144815881239 	(obj:0)
_var772_                                            1 	(obj:0)
_var776_                            0.273589695130312 	(obj:0)
_var784_                           0.0171241379565906 	(obj:0)
_var785_                           0.0170426120888039 	(obj:0)
_var786_                            0.234535098738943 	(obj:0)
_var787_                            0.412165141762367 	(obj:0)
_var789_                           0.0908198167150266 	(obj:0)
_var790_                           0.0895895172556911 	(obj:0)
_var792_                            0.242257821851156 	(obj:0)
_var797_                            0.128129018391495 	(obj:0)
_var798_                            0.245292807565601 	(obj:0)
_var800_                           0.0176503503759456 	(obj:0)
_var803_                            0.144052502658855 	(obj:0)
_var807_                            0.192719740006596 	(obj:0)
_var809_                           0.0689523555417206 	(obj:0)
_var812_                            0.389912285577704 	(obj:0)
_var817_                           0.0181172712550912 	(obj:0)
_var821_                            0.229484200657395 	(obj:0)
_var823_                            0.129496429537563 	(obj:0)
_var825_                             0.34719273085717 	(obj:0)
_var826_                           0.0997839564503635 	(obj:0)
_var828_                            0.300185656635279 	(obj:0)
_var829_                            0.191485734825998 	(obj:0)
_var830_                            0.171763886264003 	(obj:0)
_var833_                            0.600753002560653 	(obj:0)
_var834_                            0.202799301842114 	(obj:0)
_var839_                          0.00832675567809153 	(obj:0)
_var840_                             0.15143800513613 	(obj:0)
_var843_                            0.410549447291674 	(obj:0)
_var844_                            0.242102181558108 	(obj:0)
_var847_                          0.00231237006814777 	(obj:0)
_var848_                           0.0190437015708552 	(obj:0)
_var850_                             0.35185823392736 	(obj:0)
_var852_                            0.201506005121307 	(obj:0)
_var858_                            0.264184574564671 	(obj:0)
_var860_                           0.0943995434551407 	(obj:0)
_var862_                           0.0499271825771809 	(obj:0)
_var865_                           0.0190251729645396 	(obj:0)
_var867_                           0.0106465371887655 	(obj:0)
_var871_                           0.0341667500453955 	(obj:0)
